proyfinal/src/viki/013/andrea/andrea-localstore/experimentInOfficeAgust.take6/worker_2/8ad3f0c8-7610-483a-a56d-5dbd961c1545.als.cnf.out
Reading from standard input... Use '--help' for help.
============================[ Problem Statistics ]=============================
|                                                                             |
|  Number of variables:         87638                                         |
|  Number of clauses:          161767                                         |
|  Parse time:                   0.03 s                                       |
|                                                                             |
============================[ Search Statistics ]==============================
| Conflicts |          ORIGINAL         |          LEARNT          | Progress |
|           |    Vars  Clauses Literals |    Limit  Clauses Lit/Cl |          |
===============================================================================
|       100 |   63746   110087   275313 |    40365      100      7 | 27.262 % |
|       250 |   63701   110054   275229 |    44401      245     36 | 27.313 % |
|       475 |   63683   109922   274877 |    48841      447     59 | 27.334 % |
|       812 |   63683   109856   274701 |    53726      780     68 | 27.334 % |
|      1318 |   63673   109812   274611 |    59098     1284     80 | 27.345 % |
|      2077 |   63673   109780   274531 |    65008     2041     83 | 27.345 % |
|      3216 |   63667   109757   274468 |    71509     3169     81 | 27.352 % |
|      4924 |   47820    62508   158198 |    78660     4597     99 | 45.435 % |
|      7486 |   47208    60401   152985 |    86526     6868     78 | 46.133 % |
===============================================================================
restarts              : 38
conflicts             : 9171           (6651 /sec)
decisions             : 30387          (0.00 % random) (22037 /sec)
propagations          : 14629329       (10609528 /sec)
conflict literals     : 625226         (46.10 % deleted)
Memory used           : 26.70 MB
CPU time              : 1.37889 s

UNSATISFIABLE
